17,1,5,3,20,1,9,1,15,1,2,1,19,3,13,1,12,2,18,1,1,1,8,3,14,2,16,2,10,3,4,2,3,2,7,2,6,4,11,3;5,2,17,3,20,2,19,1,16,1,15,2,2,2,8,2,12,3,18,2,10,1,13,3,1,2,4,1,3,1,14,3,6,2,7,1,11,1,9,4;5,1,17,2,8,1,20,3,19,2,12,1,15,4,14,1,13,2,2,4,10,2,1,3,18,4,6,1,9,3,3,3,7,3,4,4,16,5,11,5;5,4,17,4,20,4,9,2,19,4,12,4,2,3,15,5,8,4,13,4,16,3,1,4,10,4,14,4,18,5,11,2,7,4,3,5,6,5,4,5;5,5,15,3,17,5,20,5,19,5,12,5,18,3,8,5,2,5,13,5,16,4,4,3,1,5,6,3,10,5,3,4,14,5,9,5,11,4,7,5;
